words_easy_train/words_916_SAT.qaiger
aag 98 24 0 1 74
28
48
36
16
30
44
40
26
46
8
42
14
6
24
4
10
12
32
2
38
20
22
34
18
197
50 28 12
52 26 10
54 24 8
56 22 6
58 20 4
60 21 5
62 61 59
64 62 2
66 64 18
68 67 59
70 23 7
72 71 57
74 72 69
76 75 57
78 25 9
80 79 55
82 80 77
84 83 55
86 27 11
88 87 53
90 88 85
92 91 53
94 29 13
96 95 51
98 96 93
100 99 51
102 30 14
104 31 15
106 105 103
108 106 101
110 107 100
112 111 109
114 113 42
116 112 43
118 117 115
120 89 84
122 121 91
124 122 39
126 81 76
128 127 83
130 128 37
132 131 125
134 63 19
136 134 3
138 137 67
140 139 132
142 97 92
144 143 99
146 144 41
148 145 40
150 129 36
152 123 38
154 73 68
156 155 75
158 156 34
160 157 35
162 161 159
164 163 153
166 164 151
168 166 149
170 168 147
172 170 140
174 172 118
176 109 103
178 44 33
180 45 32
182 181 179
184 183 16
186 182 17
188 187 185
190 188 177
192 189 176
194 193 191
196 195 174
i0 1 x2[5]
i1 2 y1[7]
i2 2 y1[1]
i3 2 y2[7]
i4 1 x2[6]
i5 2 y1[5]
i6 2 y1[3]
i7 1 x2[4]
i8 2 y1[6]
i9 2 y2[3]
i10 2 y1[4]
i11 2 y2[6]
i12 2 y2[2]
i13 1 x2[3]
i14 2 y2[1]
i15 2 y2[4]
i16 2 y2[5]
i17 1 x2[7]
i18 2 y2[0]
i19 2 y1[2]
i20 1 x2[1]
i21 1 x2[2]
i22 2 y1[0]
i23 1 x2[0]
o0 bool[0]
c
simplified
  !=
    add
      2 y2
      1 x2
    << 2
      2 y1
