words_easy_train/words_916_SAT.qaiger.qdimacs
p cnf 98 223
a 9 10 11 12 13 14 15 16 0
e 1 2 3 4 5 6 7 8 17 18 19 20 21 22 23 24 25 26 27 28 29 30 31 32 33 34 35 36 37 38 39 40 41 42 43 44 45 46 47 48 49 50 51 52 53 54 55 56 57 58 59 60 61 62 63 64 65 66 67 68 69 70 71 72 73 74 75 76 77 78 79 80 81 82 83 84 85 86 87 88 89 90 91 92 93 94 95 96 97 98 0
-14 -6 25 0
14 -25 0
6 -25 0
-13 -5 26 0
13 -26 0
5 -26 0
-12 -4 27 0
12 -27 0
4 -27 0
-11 -3 28 0
11 -28 0
3 -28 0
-10 -2 29 0
10 -29 0
2 -29 0
10 2 30 0
-10 -30 0
-2 -30 0
30 29 31 0
-30 -31 0
-29 -31 0
-31 -1 32 0
31 -32 0
1 -32 0
-32 -9 33 0
32 -33 0
9 -33 0
33 29 34 0
-33 -34 0
-29 -34 0
11 3 35 0
-11 -35 0
-3 -35 0
35 28 36 0
-35 -36 0
-28 -36 0
-36 34 37 0
36 -37 0
-34 -37 0
37 28 38 0
-37 -38 0
-28 -38 0
12 4 39 0
-12 -39 0
-4 -39 0
39 27 40 0
-39 -40 0
-27 -40 0
-40 38 41 0
40 -41 0
-38 -41 0
41 27 42 0
-41 -42 0
-27 -42 0
13 5 43 0
-13 -43 0
-5 -43 0
43 26 44 0
-43 -44 0
-26 -44 0
-44 42 45 0
44 -45 0
-42 -45 0
45 26 46 0
-45 -46 0
-26 -46 0
14 6 47 0
-14 -47 0
-6 -47 0
47 25 48 0
-47 -48 0
-25 -48 0
-48 46 49 0
48 -49 0
-46 -49 0
49 25 50 0
-49 -50 0
-25 -50 0
-15 -7 51 0
15 -51 0
7 -51 0
15 7 52 0
-15 -52 0
-7 -52 0
52 51 53 0
-52 -53 0
-51 -53 0
-53 50 54 0
53 -54 0
-50 -54 0
53 -50 55 0
-53 -55 0
50 -55 0
55 54 56 0
-55 -56 0
-54 -56 0
56 -21 57 0
-56 -57 0
21 -57 0
-56 21 58 0
56 -58 0
-21 -58 0
58 57 59 0
-58 -59 0
-57 -59 0
44 -42 60 0
-44 -60 0
42 -60 0
60 45 61 0
-60 -61 0
-45 -61 0
-61 19 62 0
61 -62 0
-19 -62 0
40 -38 63 0
-40 -63 0
38 -63 0
63 41 64 0
-63 -64 0
-41 -64 0
-64 18 65 0
64 -65 0
-18 -65 0
65 62 66 0
-65 -66 0
-62 -66 0
31 9 67 0
-31 -67 0
-9 -67 0
-67 1 68 0
67 -68 0
-1 -68 0
68 33 69 0
-68 -69 0
-33 -69 0
69 -66 70 0
-69 -70 0
66 -70 0
48 -46 71 0
-48 -71 0
46 -71 0
71 49 72 0
-71 -72 0
-49 -72 0
-72 20 73 0
72 -73 0
-20 -73 0
72 -20 74 0
-72 -74 0
20 -74 0
64 -18 75 0
-64 -75 0
18 -75 0
61 -19 76 0
-61 -76 0
19 -76 0
36 -34 77 0
-36 -77 0
34 -77 0
77 37 78 0
-77 -78 0
-37 -78 0
-78 -17 79 0
78 -79 0
17 -79 0
78 17 80 0
-78 -80 0
-17 -80 0
80 79 81 0
-80 -81 0
-79 -81 0
81 76 82 0
-81 -82 0
-76 -82 0
-82 75 83 0
82 -83 0
-75 -83 0
-83 74 84 0
83 -84 0
-74 -84 0
-84 73 85 0
84 -85 0
-73 -85 0
-85 -70 86 0
85 -86 0
70 -86 0
-86 -59 87 0
86 -87 0
59 -87 0
54 51 88 0
-54 -88 0
-51 -88 0
-22 16 89 0
22 -89 0
-16 -89 0
22 -16 90 0
-22 -90 0
16 -90 0
90 89 91 0
-90 -91 0
-89 -91 0
91 -8 92 0
-91 -92 0
8 -92 0
-91 8 93 0
91 -93 0
-8 -93 0
93 92 94 0
-93 -94 0
-92 -94 0
-94 88 95 0
94 -95 0
-88 -95 0
94 -88 96 0
-94 -96 0
88 -96 0
96 95 97 0
-96 -97 0
-95 -97 0
97 -87 98 0
-97 -98 0
87 -98 0
-98 0
